
50
139346

4288 3288
10833 9833
10593 9593
10184 9184
8900 7900
9751 8751
1005 5
7270 6270
3477 2477
8305 7305
5324 4324
6601 5601
6428 5428
6762 5762
9274 8274
10816 9816
4456 3456
9062 8062
9893 8893
4921 3921
2235 1235
5974 4974
8647 7647
6242 5242
2845 1845
8055 7055
4246 3246
9863 8863
2685 1685
6939 5939
4855 3855
10850 9850
2387 1387
9802 8802
5177 4177
4719 3719
3082 2082
5946 4946
10294 9294
10994 9994
10396 9396
7113 6113
3361 2361
6073 5073
7498 6498
3960 2960
10870 9870
1846 846
3349 2349
3033 2033
